(set-logic HORN)
(set-info :source |
    Benchmark: C_VC
    Output by Princess (http://www.philipp.ruemmer.org/princess.shtml)
|)
(set-info :status unknown)
(declare-fun inv_main12 (Int Int Int Int) Bool)
(declare-fun inv_main17 (Int Int Int Int) Bool)
(declare-fun inv_main3 (Int Int) Bool)
(assert (forall ((var0 Int)) (forall ((var1 Int)) (inv_main3 var0 var1 ) ) ) )
(assert (forall ((var0 Int)) (forall ((var1 Int)) (forall ((var2 Int)) (forall ((var3 Int)) (or (not (and (inv_main12 var2 var3 var1 var0 ) (and (= var2 var3 ) (= var1 0 ) ) ) ) (inv_main17 var2 var3 var1 var0 ) ) ) ) ) ) )
(assert (forall ((var0 Int)) (forall ((var1 Int)) (forall ((var2 Int)) (forall ((var3 Int)) (or (not (and (inv_main12 var2 var3 var1 var0 ) (not (= var1 0 ) ) ) ) (inv_main12 var2 var3 (+ var1 (- 1) ) (+ var0 (- 1) ) ) ) ) ) ) ) )
(assert (forall ((var0 Int)) (forall ((var1 Int)) (forall ((var2 Int)) (forall ((var3 Int)) (or (not (and (inv_main3 var1 var3 ) (and (<= 0 var0 ) (<= 0 var2 ) ) ) ) (inv_main12 var0 var2 var0 var2 ) ) ) ) ) ) )
(assert (forall ((var0 Int)) (forall ((var1 Int)) (forall ((var2 Int)) (forall ((var3 Int)) (not (and (inv_main17 var2 var3 var1 var0 ) (not (= var0 0 ) ) ) ) ) ) ) ) )
(check-sat)
